min: 1 x1 + 1 x2 + 1 x3 + 1 x4 + 1 x5 + 1 x6 + 1 x7 + 1 x8 + 1 x9 + 1 x10;

r1: x8 + x7 + x1 >= 1;
r2: x9 >= 1;
r3: x9 >= 1;
r4: x9 >= 1;
r5: x8 >= 1;
r6: x2 + x8 >= 1;
r7: x7 + x4 >= 1;
r8: x2 >= 1;
r9: x6 + x5 >= 1;
r10: x3 + x9 + x4 + x8 >= 1;
r11: x10 >= 1;
r12: x4 + x7 + x3 >= 1;
r13: x7 + x9 + x3 + x4 >= 1;
r14: x6 + x4 + x7 + x1 >= 1;
r15: x9 + x5 + x10 >= 1;
r16: x8 + x9 >= 1;
r17: x6 + x1 + x9 >= 1;
r18: x3 + x2 + x9 + x6 >= 1;
r19: x2 >= 1;
r20: x3 + x9 + x10 + x6 >= 1;
r21: x8 + x10 >= 1;
r22: x7 + x2 + x9 >= 1;
r23: x1 + x6 + x9 >= 1;
r24: x8 + x2 + x9 + x10 >= 1;
r25: x2 >= 1;
r26: x5 + x3 + x4 >= 1;
r27: x2 + x8 + x10 + x6 >= 1;
r28: x4 + x3 + x1 >= 1;
r29: x3 >= 1;
r30: x5 + x1 >= 1;

bin x1, x2, x3, x4, x5, x6, x7, x8, x9, x10;
